157191
49,8,56,91,22,92,11,7,96,105,76,20,16,89,63,15,19,55,39,5,68,80,67,18,41,97,30,64,51,54,28,29,4,12,87,45,85,24,61,21,47,84,10,40,66,103,104,2,77,93,48,36,35,70,53,94,37,100,69,17,6,32,81,71,1,72,38,83,52,62,31,74,3,14,95,59,90,78,42,86,27,26,43,65,58,9,75,57,0,23,101,73,88,79,82,33,25,13,46,60,102,34,50,99,44,98,49